
length = 20;
width = 10;

ntypes = 3;
number = [3,2,2];
config = [{1,2,3,4},{5,6,7,8},{9,10,11,12}];

nshapes = 12;
shape = [{1,2},{3,4},{3,5},{6,7}, 
         {8,9,10},{11,12,13},{14,15,16},{17,18,19},
         {20,21,22}, {23,21,24}, {25,21,26}, {27,21,28}];

nroff = 28;
rectoff = [| 0,1,2,1 | 2,0,3,3
           | 0,0,3,3 | 1,3,1,2
           | 3,1,2,1
           | 0,2,3,3 | 1,0,1,2

           | 0,1,1,2 | 1,0,4,4 | 5,0,2,2
           | 1,6,2,1 | 0,2,4,4 | 0,0,2,2
           | 6,1,1,2 | 2,0,4,4 | 0,2,2,2
           | 1,0,2,1 | 0,1,4,4 | 2,5,2,2  

           | 2,0,1,1 | 1,1,3,3 | 0,4,5,1
           | 0,2,1,1 | 4,0,1,5 
           | 2,4,1,1 | 0,0,5,1
           | 4,2,1,1 | 0,0,1,5
 |]; 


mist =   array1d(LENGTH,[0,0,0,3,3,3,6,6,6,6,2,2,2,4,4,4,0,0,5,5]);
arrow  = array1d(WIDTH,[0,1,2,4,10,12,7,3,1,0]);
price = [ 5, 6, 7 ];
budget = 40;

stage = E;
